
  22    4
  10   10   10   10

   0   0   0   0   0   5 2 3 4 6 10 
   4  10  10  10  10   5 17 13 8 7 5 
   4  10  10  10  10   5 17 13 11 8 5 
   4  10  10  10  10   4 11 9 8 5 
   1  10  10  10  10   5 21 20 16 15 12 
   4  10  10  10  10   5 21 17 15 14 13 
  10  10  10  10  10   3 15 12 11 
  10  10  10  10  10   5 21 20 16 15 14 
  10  10  10  10  10   4 20 17 15 14 
  10  10  10  10  10   3 20 15 14 
   1  10  10  10  10   3 20 19 16 
   1  10  10  10  10   2 19 14 
   8  10  10  10  10   2 20 19 
   7  10  10  10  10   1 18 
   1  10  10  10  10   1 19 
   1  10  10  10  10   1 18 
   8  10  10  10  10   1 18 
   2  10  10  10  10   1 22
   8  10  10  10  10   1 22
   6  10  10  10  10   1 22
   2  10  10  10  10   1 22
   0   0   0   0   0   0 
